NAME : eil76.tour
COMMENT : Optimum tour for eil76.tsp (Length 538)
TYPE : TOUR
DIMENSION : 76
TOUR_SECTION  
43
41
56
23
49
24
18
50
25
55
31
10
58
72
39
9
32
44
3
16
63
33
1
73
62
28
74
2
68
6
51
17
40
12
26
67
76
75
4
30
48
29
45
27
52
34
46
8
35
7
53
11
38
65
66
59
14
19
54
13
57
15
5
37
20
70
60
71
69
36
47
21
61
22
64
42
-1
EOF
